 vasp.5.4.1 24Jun15 (build Feb 03 2017 16:24:58) complex

 executed on           IFC91_ompi date 2018.06.22  15:37:03

 INCAR:
 POTCAR:   PAW_PBE Ir 06Sep2000

 POTCAR:   PAW_PBE Ir 06Sep2000
   VRHFIN =Ir: s1d8

   TITEL  = PAW_PBE Ir 06Sep2000
   POMASS =  192.220; ZVAL   =    9.000    mass and valenz
   ENMAX  =  210.870; ENMIN  =  158.153 eV
   QCUT   =   -3.937; QGAM   =    7.874    optimization parameters

   Description
     l     E      TYP  RCUT    TYP  RCUT
     2   .000     23  2.600
     2   .000     23  2.600
     0   .000     23  2.600
     0   .000     23  2.600
     1  -.200     23  2.600
     1  1.500     23  2.600
     3   .000      7   .000

 PAW_PBE Ir 06Sep2000                   :

 POSCAR: title
  positions in cartesian coordinates
 exchange correlation table for  LEXCH =        8
   RHO(1)=    0.500       N(1)  =     2000
   RHO(2)=  100.500       N(2)  =     4000

 ion  position               nearest neighbor table
   1  0.000  0.000  0.000-

  LATTYP: Found a face centered cubic cell.
 ALAT       =     4.0092950000

  Lattice vectors:

 A1 = (   0.0000000000,   2.0046475000,   2.0046475000)
 A2 = (   2.0046475000,   0.0000000000,   2.0046475000)
 A3 = (   2.0046475000,   2.0046475000,   0.0000000000)

Analysis of symmetry for initial positions (statically):
 Subroutine PRICEL returns:
 Original cell was already a primitive cell.

 Routine SETGRP: Setting up the symmetry group for a
 face centered cubic supercell.

 Subroutine GETGRP returns: Found 48 space group operations
 (whereof 48 operations were pure point group operations)
 out of a pool of 48 trial point group operations.

The static configuration has the point symmetry O_h .

Analysis of symmetry for dynamics (positions and initial velocities):
 Subroutine PRICEL returns:
 Original cell was already a primitive cell.

 Routine SETGRP: Setting up the symmetry group for a
 face centered cubic supercell.

 Subroutine GETGRP returns: Found 48 space group operations
 (whereof 48 operations were pure point group operations)
 out of a pool of 48 trial point group operations.

The dynamic configuration has the point symmetry O_h .

 KPOINTS: KPOINTS file

Automatic generation of k-mesh.
Space group operators:
 irot       det(A)        alpha          n_x          n_y          n_z        tau_x        tau_y        tau_z
    1     1.000000     0.000001     1.000000     0.000000     0.000000     0.000000     0.000000     0.000000
    2    -1.000000     0.000001     1.000000     0.000000     0.000000     0.000000     0.000000     0.000000
    3     1.000000   120.000000    -0.577350    -0.577350    -0.577350     0.000000     0.000000     0.000000
    4    -1.000000   120.000000    -0.577350    -0.577350    -0.577350     0.000000     0.000000     0.000000
    5     1.000000   120.000000     0.577350     0.577350     0.577350     0.000000     0.000000     0.000000
    6    -1.000000   120.000000     0.577350     0.577350     0.577350     0.000000     0.000000     0.000000
    7     1.000000    90.000000     0.000000     0.000000    -1.000000     0.000000     0.000000     0.000000
    8    -1.000000    90.000000     0.000000     0.000000    -1.000000     0.000000     0.000000     0.000000
    9     1.000000   180.000000     0.000000     0.707107     0.707107     0.000000     0.000000     0.000000
   10    -1.000000   180.000000     0.000000     0.707107     0.707107     0.000000     0.000000     0.000000
   11     1.000000    90.000000     0.000000     1.000000     0.000000     0.000000     0.000000     0.000000
   12    -1.000000    90.000000     0.000000     1.000000     0.000000     0.000000     0.000000     0.000000
   13     1.000000   180.000000     0.000000     0.000000     1.000000     0.000000     0.000000     0.000000
   14    -1.000000   180.000000     0.000000     0.000000     1.000000     0.000000     0.000000     0.000000
   15     1.000000   120.000000    -0.577350     0.577350     0.577350     0.000000     0.000000     0.000000
   16    -1.000000   120.000000    -0.577350     0.577350     0.577350     0.000000     0.000000     0.000000
   17     1.000000   120.000000    -0.577350     0.577350    -0.577350     0.000000     0.000000     0.000000
   18    -1.000000   120.000000    -0.577350     0.577350    -0.577350     0.000000     0.000000     0.000000
   19     1.000000    90.000000     0.000000     0.000000     1.000000     0.000000     0.000000     0.000000
   20    -1.000000    90.000000     0.000000     0.000000     1.000000     0.000000     0.000000     0.000000
   21     1.000000    90.000000    -1.000000     0.000000     0.000000     0.000000     0.000000     0.000000
   22    -1.000000    90.000000    -1.000000     0.000000     0.000000     0.000000     0.000000     0.000000
   23     1.000000   180.000000     0.707107     0.000000     0.707107     0.000000     0.000000     0.000000
   24    -1.000000   180.000000     0.707107     0.000000     0.707107     0.000000     0.000000     0.000000
   25     1.000000   120.000000     0.577350    -0.577350     0.577350     0.000000     0.000000     0.000000
   26    -1.000000   120.000000     0.577350    -0.577350     0.577350     0.000000     0.000000     0.000000
   27     1.000000   120.000000    -0.577350    -0.577350     0.577350     0.000000     0.000000     0.000000
   28    -1.000000   120.000000    -0.577350    -0.577350     0.577350     0.000000     0.000000     0.000000
   29     1.000000   180.000000     1.000000     0.000000     0.000000     0.000000     0.000000     0.000000
   30    -1.000000   180.000000     1.000000     0.000000     0.000000     0.000000     0.000000     0.000000
   31     1.000000    90.000000     0.000000    -1.000000     0.000000     0.000000     0.000000     0.000000
   32    -1.000000    90.000000     0.000000    -1.000000     0.000000     0.000000     0.000000     0.000000
   33     1.000000   180.000000     0.707107     0.707107     0.000000     0.000000     0.000000     0.000000
   34    -1.000000   180.000000     0.707107     0.707107     0.000000     0.000000     0.000000     0.000000
   35     1.000000    90.000000     1.000000     0.000000     0.000000     0.000000     0.000000     0.000000
   36    -1.000000    90.000000     1.000000     0.000000     0.000000     0.000000     0.000000     0.000000
   37     1.000000   120.000000     0.577350    -0.577350    -0.577350     0.000000     0.000000     0.000000
   38    -1.000000   120.000000     0.577350    -0.577350    -0.577350     0.000000     0.000000     0.000000
   39     1.000000   180.000000     0.000000     1.000000     0.000000     0.000000     0.000000     0.000000
   40    -1.000000   180.000000     0.000000     1.000000     0.000000     0.000000     0.000000     0.000000
   41     1.000000   120.000000     0.577350     0.577350    -0.577350     0.000000     0.000000     0.000000
   42    -1.000000   120.000000     0.577350     0.577350    -0.577350     0.000000     0.000000     0.000000
   43     1.000000   180.000000     0.000000    -0.707107     0.707107     0.000000     0.000000     0.000000
   44    -1.000000   180.000000     0.000000    -0.707107     0.707107     0.000000     0.000000     0.000000
   45     1.000000   180.000000     0.707107    -0.707107     0.000000     0.000000     0.000000     0.000000
   46    -1.000000   180.000000     0.707107    -0.707107     0.000000     0.000000     0.000000     0.000000
   47     1.000000   180.000000     0.707107     0.000000    -0.707107     0.000000     0.000000     0.000000
   48    -1.000000   180.000000     0.707107     0.000000    -0.707107     0.000000     0.000000     0.000000

 Subroutine IBZKPT returns following result:

 Found    256 irreducible k-points:

 Following reciprocal coordinates:
            Coordinates               Weight
  0.000000  0.000000  0.000000      1.000000
  0.050000  0.000000  0.000000      8.000000
  0.100000  0.000000  0.000000      8.000000
  0.150000  0.000000  0.000000      8.000000
  0.200000  0.000000  0.000000      8.000000
  0.250000  0.000000  0.000000      8.000000
  0.300000  0.000000  0.000000      8.000000
  0.350000  0.000000  0.000000      8.000000
  0.400000  0.000000  0.000000      8.000000
  0.450000  0.000000  0.000000      8.000000
  0.500000  0.000000  0.000000      4.000000
  0.050000  0.050000  0.000000      6.000000
  0.100000  0.050000  0.000000     24.000000
  0.150000  0.050000  0.000000     24.000000
  0.200000  0.050000  0.000000     24.000000
  0.250000  0.050000  0.000000     24.000000
  0.300000  0.050000  0.000000     24.000000
  0.350000  0.050000  0.000000     24.000000
  0.400000  0.050000  0.000000     24.000000
  0.450000  0.050000  0.000000     24.000000
  0.500000  0.050000  0.000000     24.000000
 -0.450000  0.050000  0.000000     24.000000
 -0.400000  0.050000  0.000000     24.000000
 -0.350000  0.050000  0.000000     24.000000
 -0.300000  0.050000  0.000000     24.000000
 -0.250000  0.050000  0.000000     24.000000
 -0.200000  0.050000  0.000000     24.000000
 -0.150000  0.050000  0.000000     24.000000
 -0.100000  0.050000  0.000000     24.000000
 -0.050000  0.050000  0.000000     12.000000
  0.100000  0.100000  0.000000      6.000000
  0.150000  0.100000  0.000000     24.000000
  0.200000  0.100000  0.000000     24.000000
  0.250000  0.100000  0.000000     24.000000
  0.300000  0.100000  0.000000     24.000000
  0.350000  0.100000  0.000000     24.000000
  0.400000  0.100000  0.000000     24.000000
  0.450000  0.100000  0.000000     24.000000
  0.500000  0.100000  0.000000     24.000000
 -0.450000  0.100000  0.000000     24.000000
 -0.400000  0.100000  0.000000     24.000000
 -0.350000  0.100000  0.000000     24.000000
 -0.300000  0.100000  0.000000     24.000000
 -0.250000  0.100000  0.000000     24.000000
 -0.200000  0.100000  0.000000     24.000000
 -0.150000  0.100000  0.000000     24.000000
 -0.100000  0.100000  0.000000     12.000000
  0.150000  0.150000  0.000000      6.000000
  0.200000  0.150000  0.000000     24.000000
  0.250000  0.150000  0.000000     24.000000
  0.300000  0.150000  0.000000     24.000000
  0.350000  0.150000  0.000000     24.000000
  0.400000  0.150000  0.000000     24.000000
  0.450000  0.150000  0.000000     24.000000
  0.500000  0.150000  0.000000     24.000000
 -0.450000  0.150000  0.000000     24.000000
 -0.400000  0.150000  0.000000     24.000000
 -0.350000  0.150000  0.000000     24.000000
 -0.300000  0.150000  0.000000     24.000000
 -0.250000  0.150000  0.000000     24.000000
[...]
 -0.350000  0.400000  0.150000     48.000000
 -0.300000  0.400000  0.150000     48.000000
 -0.250000  0.400000  0.150000     24.000000
 -0.400000  0.450000  0.150000     24.000000
 -0.350000  0.450000  0.150000     48.000000
 -0.300000  0.450000  0.150000     24.000000
 -0.350000  0.500000  0.150000     12.000000
 -0.400000  0.400000  0.200000     24.000000
 -0.350000  0.400000  0.200000     48.000000
 -0.300000  0.400000  0.200000     24.000000
 -0.350000  0.450000  0.200000     24.000000
 -0.300000  0.450000  0.200000     48.000000
 -0.250000  0.450000  0.200000     24.000000
 -0.300000  0.500000  0.200000     12.000000
 -0.250000  0.500000  0.250000      6.000000

 Following cartesian coordinates:
[...]
 k-point ** :  -0.4000 0.3500 0.0000  plane waves:     110
 k-point ** :  -0.3500 0.3500 0.0000  plane waves:     110
 k-point ** :   0.4000 0.4000 0.0000  plane waves:     112
 k-point ** :   0.4500 0.4000 0.0000  plane waves:     113
 k-point ** :   0.5000 0.4000 0.0000  plane waves:     114
 k-point ** :  -0.4500 0.4000 0.0000  plane waves:     110
 k-point ** :  -0.4000 0.4000 0.0000  plane waves:     110
 k-point ** :   0.4500 0.4500 0.0000  plane waves:     116
 k-point ** :   0.5000 0.4500 0.0000  plane waves:     115
 k-point ** :  -0.4500 0.4500 0.0000  plane waves:     114
 k-point ** :   0.5000 0.5000 0.0000  plane waves:     116
 k-point ** :   0.1500 0.1000 0.0500  plane waves:     117
 k-point ** :   0.2000 0.1000 0.0500  plane waves:     118
 k-point ** :   0.2500 0.1000 0.0500  plane waves:     116
 k-point ** :   0.3000 0.1000 0.0500  plane waves:     112
 k-point ** :   0.3500 0.1000 0.0500  plane waves:     111
 k-point ** :   0.4000 0.1000 0.0500  plane waves:     111
 k-point ** :   0.4500 0.1000 0.0500  plane waves:     112
 k-point ** :   0.5000 0.1000 0.0500  plane waves:     113
 k-point ** :  -0.4500 0.1000 0.0500  plane waves:     114
 k-point ** :   0.2000 0.1500 0.0500  plane waves:     120
 k-point ** :   0.2500 0.1500 0.0500  plane waves:     116
 k-point ** :   0.3000 0.1500 0.0500  plane waves:     111
 k-point ** :   0.3500 0.1500 0.0500  plane waves:     112
 k-point ** :   0.4000 0.1500 0.0500  plane waves:     111
 k-point ** :   0.4500 0.1500 0.0500  plane waves:     113
 k-point ** :   0.5000 0.1500 0.0500  plane waves:     110
 k-point ** :  -0.4500 0.1500 0.0500  plane waves:     112
 k-point ** :  -0.4000 0.1500 0.0500  plane waves:     113
 k-point ** :  -0.3500 0.1500 0.0500  plane waves:     112
 k-point ** :  -0.3000 0.1500 0.0500  plane waves:     112
 k-point ** :  -0.2500 0.1500 0.0500  plane waves:     110
 k-point ** :  -0.2000 0.1500 0.0500  plane waves:     113
 k-point ** :  -0.1500 0.1500 0.0500  plane waves:     114
 k-point ** :  -0.1000 0.1500 0.0500  plane waves:     119
 k-point ** :   0.2500 0.2000 0.0500  plane waves:     116
 k-point ** :   0.3000 0.2000 0.0500  plane waves:     116
 k-point ** :   0.3500 0.2000 0.0500  plane waves:     117
 k-point ** :   0.4000 0.2000 0.0500  plane waves:     113
 k-point ** :   0.4500 0.2000 0.0500  plane waves:     114
 k-point ** :   0.5000 0.2000 0.0500  plane waves:     113
 k-point ** :  -0.4500 0.2000 0.0500  plane waves:     111
 k-point ** :  -0.4000 0.2000 0.0500  plane waves:     111
 k-point ** :  -0.3500 0.2000 0.0500  plane waves:     111
 k-point ** :  -0.3000 0.2000 0.0500  plane waves:     113
 k-point ** :  -0.2500 0.2000 0.0500  plane waves:     111
 k-point ** :  -0.2000 0.2000 0.0500  plane waves:     114
 k-point ** :  -0.1500 0.2000 0.0500  plane waves:     113
 k-point ** :   0.3000 0.2500 0.0500  plane waves:     118
 k-point ** :   0.3500 0.2500 0.0500  plane waves:     115
 k-point ** :   0.4000 0.2500 0.0500  plane waves:     116
 k-point ** :   0.4500 0.2500 0.0500  plane waves:     113
 k-point ** :   0.5000 0.2500 0.0500  plane waves:     113
 k-point ** :  -0.4500 0.2500 0.0500  plane waves:     111
 k-point ** :  -0.4000 0.2500 0.0500  plane waves:     113
 k-point ** :  -0.3500 0.2500 0.0500  plane waves:     111
 k-point ** :  -0.3000 0.2500 0.0500  plane waves:     112
 k-point ** :  -0.2500 0.2500 0.0500  plane waves:     112
 k-point ** :  -0.2000 0.2500 0.0500  plane waves:     114
[...]
 k-point ** :  -0.3500 0.4000 0.1500  plane waves:     109
 k-point ** :  -0.3000 0.4000 0.1500  plane waves:     110
 k-point ** :  -0.2500 0.4000 0.1500  plane waves:     110
 k-point ** :  -0.4000 0.4500 0.1500  plane waves:     109
 k-point ** :  -0.3500 0.4500 0.1500  plane waves:     108
 k-point ** :  -0.3000 0.4500 0.1500  plane waves:     110
 k-point ** :  -0.3500 0.5000 0.1500  plane waves:     108
 k-point ** :  -0.4000 0.4000 0.2000  plane waves:     111
 k-point ** :  -0.3500 0.4000 0.2000  plane waves:     111
 k-point ** :  -0.3000 0.4000 0.2000  plane waves:     110
 k-point ** :  -0.3500 0.4500 0.2000  plane waves:     107
 k-point ** :  -0.3000 0.4500 0.2000  plane waves:     109
 k-point ** :  -0.2500 0.4500 0.2000  plane waves:     110
 k-point ** :  -0.3000 0.5000 0.2000  plane waves:     108
 k-point ** :  -0.2500 0.5000 0.2500  plane waves:     108

 maximum and minimum number of plane-waves per node :       125      106

 maximum number of plane-waves:       125
 maximum index in each direction:
   IXMAX=    3   IYMAX=    3   IZMAX=    3
   IXMIN=   -3   IYMIN=   -3   IZMIN=   -3

 NGX is ok and might be reduce to  14
 NGY is ok and might be reduce to  14
 NGZ is ok and might be reduce to  14

 serial   3D FFT for wavefunctions
 parallel 3D FFT for charge:
    minimum data exchange during FFTs selected (reduces bandwidth)

 Broyden mixing: mesh for mixing (old mesh)
   NGX =  7   NGY =  7   NGZ =  7
  (NGX  = 28   NGY  = 28   NGZ  = 28)
  gives a total of    343 points

 initial charge density was supplied:
 charge density of overlapping atoms calculated
 number of electron       9.0000000 magnetization
 keeping initial charge density in first step

 Maximum index for augmentation-charges         1009 (set IRDMAX)

 First call to EWALD:  gamma=   0.702
 Maximum number of real-space cells 3x 3x 3
 Maximum number of reciprocal cells 3x 3x 3

 FEWALD executed in parallel

----------------------------------------- Iteration    1(   1)  ---------------------------------------

 eigenvalue-minimisations  :  5120
 total energy-change (2. order) : 0.1544104E+02  (-0.8649741E+02)
 number of electron       9.0000000 magnetization
 augmentation part        9.0000000 magnetization

 Free energy of the ion-electron system (eV)
  alpha Z        PSCENC =        70.72657512
  Ewald energy   TEWEN  =      -666.91327051
  -Hartree energ DENC   =       -46.82007851
  -exchange      EXHF   =         0.00000000
  -V(xc)+E(xc)   XCENC  =       -17.36510987
  PAW double counting   =       457.29028606     -416.57040976
  entropy T*S    EENTRO =         0.00026614
  eigenvalues    EBANDS =        74.94158154
  atomic energy  EATOM  =       560.15119896
  Solvation  Ediel_sol  =         0.00000000
  free energy    TOTEN  =        15.44103917 eV

  energy without entropy =       15.44077303  energy(sigma->0) =       15.44095046

[...]

 eigenvalue-minimisations  :  5120
 total energy-change (2. order) :-0.2244661E+02  (-0.1329149E+02)
 number of electron       9.0000000 magnetization
 augmentation part        9.0000000 magnetization

[...]

 Broyden mixing:
  rms(total) = 0.44917E+00    rms(broyden)= 0.44874E+00
  rms(prec ) = 0.18194E+01
  weight for this iteration     100.00

[...]

 eigenvalues of (default mixing * dielectric matrix)
  average eigenvalue GAMMA=   1.4574
  1.4574

[...]

 average (electrostatic) potential at core
  the test charge radii are     1.2793
  (the norm of the test charge is              1.0000)
       1 -50.5168

 E-fermi :   8.2311     XC(G=0): -13.2302     alpha+bet :-13.8161

 k-point     1 :       0.0000    0.0000    0.0000
  band No.  band energies     occupation
      1      -1.4255      2.00000
      2       5.0992      2.00000
      3       5.0992      2.00000
      4       5.0992      2.00000
      5       7.2883      2.00000
      6       7.2883      2.00000
      7      22.8146      0.00000
      8      27.6505      0.00000
      9      27.6505      0.00000
     10      27.6505      0.00000
     11      32.2186      0.00000
     12      39.1153      0.00000
     13      39.1153      0.00000
     14      39.1163      0.00000
     15      40.2666      0.00000
     16      40.3811      0.00000
     17      40.5446      0.00000
     18      44.0541      0.00000
     19      45.9184      0.00000
     20      47.8776      0.00000

[...]

 soft charge-density along one line, spin component           1
         0         1         2         3         4         5         6         7         8         9
 total charge-density along one line

------------------------ aborting loop because EDIFF is reached ----------------------------------------

  FORCE on cell =-STRESS in cart. coord.  units (eV):
  Direction    XX          YY          ZZ          XY          YZ          ZX
  Alpha Z    70.72658    70.72658    70.72658
  Ewald    -222.30443  -222.30443  -222.30443    -0.00000     0.00000    -0.00000
  Hartree    12.29191    12.29191    12.29191     0.00000     0.00000     0.00000
  E(xc)     -40.62100   -40.62100   -40.62100    -0.00001    -0.00001    -0.00001
  Local      32.70281    32.70281    32.70281     0.00000     0.00000     0.00000
  n-local   -10.51320    -8.99853   -13.07974     4.20640    -5.04623     1.79055
  augment    39.56483    39.56483    39.56483    -0.00003    -0.00003    -0.00003
  Kinetic   113.22901   118.47866   114.55634     1.12879    -3.74832     4.13952
  Fock        0.00000     0.00000     0.00000     0.00000     0.00000     0.00000
  Total      -3.08179    -3.08179    -3.08179     0.00000    -0.00000    -0.00000
  in kB    -306.45694  -306.45694  -306.45694     0.00000    -0.00000    -0.00000

 VOLUME and BASIS-vectors are now :
  energy-cutoff  :      210.87
  volume of cell :       16.11
      direct lattice vectors                 reciprocal lattice vectors
     0.000000000  2.004647500  2.004647500    -0.249420409  0.249420409  0.249420409
     2.004647500  0.000000000  2.004647500     0.249420409 -0.249420409  0.249420409
     2.004647500  2.004647500  0.000000000     0.249420409  0.249420409 -0.249420409

[...]

 FORCES acting on ions
    electron-ion (+dipol)            ewald-force                    non-local-force                 convergence-correction
   -.652E-14 -.612E-14 -.686E-15   -.242E-15 0.251E-15 0.181E-15   0.000E+00 0.000E+00 0.000E+00   -.465E-14 -.166E-14 -.366E-16
   -.652E-14 -.612E-14 -.686E-15   -.242E-15 0.251E-15 0.181E-15   0.000E+00 0.000E+00 0.000E+00   -.465E-14 -.166E-14 -.366E-16

 POSITION                                       TOTAL-FORCE (eV/Angst)
      0.00000      0.00000      0.00000         0.000000     -0.000000      0.000000
    total drift:                               -0.000000     -0.000000     -0.000000

  FREE ENERGIE OF THE ION-ELECTRON SYSTEM (eV)
  free  energy   TOTEN  =        -8.71320584 eV

  energy  without entropy=       -8.71424212  energy(sigma->0) =       -8.71355127

[...]

 d Force = 0.0000000E+00[ 0.000E+00, 0.000E+00]  d Energy =-0.3222837E+01 0.322E+01
 d Force = 0.0000000E+00[ 0.000E+00, 0.000E+00]  d Ewald  = 0.1164682E+03-0.116E+03

 Steepest descent step on ions:
 trial-energy change:    3.222837  1 .order    4.031322   -1.374543    9.437187
  (g-gl).g = 0.137E+01      g.g   = 0.137E+01  gl.gl    = 0.000E+00
 g(Force)  = 0.183E-65   g(Stress)= 0.137E+01 ortho     = 0.000E+00
 gamma     =   0.00000
 trial     =   1.00000
 opt step  =   0.19852  (harmonic =   0.12713) maximal distance =0.00000000
 next E    =    -8.855971   (d E  =  -0.14277)

[...]

 d Force = 0.0000000E+00[ 0.000E+00, 0.000E+00]  d Energy = 0.3383485E+01-0.338E+01
 d Force = 0.0000000E+00[ 0.000E+00, 0.000E+00]  d Ewald  =-0.9618550E+02 0.962E+02

[...]

 d Force = 0.0000000E+00[ 0.000E+00, 0.000E+00]  d Energy = 0.2489608E-02-0.249E-02
 d Force = 0.0000000E+00[ 0.000E+00, 0.000E+00]  d Ewald  = 0.1761459E+01-0.176E+01

 FEWALD executed in parallel

[...]

 eigenvalue-minimisations  : 10240
 total energy-change (2. order) : 0.1621437E-03  (-0.7777297E-05)
 number of electron       9.0000001 magnetization
 augmentation part        2.6073305 magnetization

[...]

 Broyden mixing:
  rms(total) = 0.39065E-03    rms(broyden)= 0.39014E-03
  rms(prec ) = 0.14876E-02
  weight for this iteration     100.00

 eigenvalues of (default mixing * dielectric matrix)
  average eigenvalue GAMMA=   1.5118
  2.3793  1.3934  0.7626

[...]

----------------------------------------- Iteration    5(   5)  ---------------------------------------

 eigenvalue-minimisations  :  7582
 total energy-change (2. order) :-0.3471393E-07  (-0.3883180E-07)
 number of electron       9.0000001 magnetization
 augmentation part        2.6078265 magnetization

 Free energy of the ion-electron system (eV)
  alpha Z        PSCENC =        78.45227476
  Ewald energy   TEWEN  =      -690.36218840
  -Hartree energ DENC   =       -31.23861172
  -exchange      EXHF   =         0.00000000
  -V(xc)+E(xc)   XCENC  =       -17.04183116
  PAW double counting   =       513.84232906     -476.16118835
  entropy T*S    EENTRO =         0.00080778
  eigenvalues    EBANDS =        53.48025467
  atomic energy  EATOM  =       560.15119896
  Solvation  Ediel_sol  =         0.00000000
  free energy    TOTEN  =        -8.87695441 eV

  energy without entropy =       -8.87776219  energy(sigma->0) =       -8.87722367

 average (electrostatic) potential at core
  the test charge radii are     1.2793
  (the norm of the test charge is              1.0000)
       1 -49.0972

 E-fermi :   9.9084     XC(G=0): -13.8391     alpha+bet :-15.3253

[...]

 k-point   256 :      -0.2500    0.5000    0.2500
  band No.  band energies     occupation
      1       3.9513      2.00000
      2       5.2705      2.00000
      3       5.2705      2.00000
      4       8.2526      2.00000
      5      11.3625     -0.00000
      6      18.0270      0.00000
      7      18.8791      0.00000
      8      18.8791      0.00000
      9      23.0058      0.00000
     10      35.2423      0.00000
     11      35.2423      0.00000
     12      37.8195      0.00000
     13      42.2208      0.00000
     14      42.2208      0.00000
     15      42.4618      0.00000
     16      42.7934      0.00000
     17      45.5613      0.00000
     18      45.5613      0.00000
     19      46.3997      0.00000
     20      52.3078      0.00000

 soft charge-density along one line, spin component           1
         0         1         2         3         4         5         6         7         8         9
 total charge-density along one line

------------------------ aborting loop because EDIFF is reached ----------------------------------------

  FORCE on cell =-STRESS in cart. coord.  units (eV):
  Direction    XX          YY          ZZ          XY          YZ          ZX
  Alpha Z    78.45227    78.45227    78.45227
  Ewald    -230.12074  -230.12074  -230.12074     0.00000     0.00000    -0.00000
  Hartree    10.41352    10.41352    10.41352     0.00000     0.00000     0.00000
  E(xc)     -41.30262   -41.30262   -41.30262     0.00000     0.00000     0.00000
  Local      34.34115    34.34115    34.34115     0.00000     0.00000     0.00000
  n-local    -7.58708    -5.46249   -10.18854     4.41534    -5.47004     2.06378
  augment    39.19189    39.19189    39.19189    -0.00000    -0.00000    -0.00000
  Kinetic   114.46946   120.17284   115.67146     1.66926    -4.01741     4.15742
  Fock        0.00000     0.00000     0.00000     0.00000     0.00000     0.00000
  Total       0.00068     0.00068     0.00068     0.00000     0.00000    -0.00000
  in kB       0.07540     0.07540     0.07540     0.00000     0.00000    -0.00000

 VOLUME and BASIS-vectors are now :
  energy-cutoff  :      210.87
  volume of cell :       14.53
      direct lattice vectors                 reciprocal lattice vectors
    -0.000000000  1.936557423  1.936557423    -0.258190123  0.258190123  0.258190123
     1.936557423 -0.000000000  1.936557423     0.258190123 -0.258190123  0.258190123
     1.936557423  1.936557423 -0.000000000     0.258190123  0.258190123 -0.258190123

  length of vectors
     2.738705772  2.738705772  2.738705772     0.447198412  0.447198412  0.447198412

 FORCES acting on ions
    electron-ion (+dipol)            ewald-force                    non-local-force                 convergence-correction
   -.737E-14 -.466E-14 0.178E-14   0.145E-15 0.934E-15 -.657E-16   -.724E-24 0.103E-24 0.170E-27   -.224E-14 -.196E-14 -.602E-16
   -.737E-14 -.466E-14 0.178E-14   0.145E-15 0.934E-15 -.657E-16   -.724E-24 0.103E-24 0.170E-27   -.224E-14 -.196E-14 -.602E-16

 POSITION                                       TOTAL-FORCE (eV/Angst)
      0.00000     -0.00000      0.00000         0.000000      0.000000     -0.000000
    total drift:                               -0.000000     -0.000000      0.000000

  FREE ENERGIE OF THE ION-ELECTRON SYSTEM (eV)
  free  energy   TOTEN  =        -8.87695441 eV

  energy  without entropy=       -8.87776219  energy(sigma->0) =       -8.87722367

 d Force = 0.0000000E+00[ 0.000E+00, 0.000E+00]  d Energy = 0.6109315E-03-0.611E-03
 d Force = 0.0000000E+00[ 0.000E+00, 0.000E+00]  d Ewald  = 0.1404744E+01-0.140E+01

 reached required accuracy - stopping structural energy minimisation
 writing wavefunctions